data;


param d:= 100;
param r:=5;
param p:=0.900000;
param M:=1000;
param U:=
         1         1        2.171628e+00
         2         1        9.224020e-01
         3         1        1.211598e+00
         4         1       -9.961161e-01
         5         1        2.141093e-01
         6         1        2.264135e-01
         7         1        1.385898e-01
         8         1       -6.341470e-01
         9         1       -1.902902e-01
        10         1       -9.572356e-01
        11         1       -5.696549e-02
        12         1        4.361701e-01
        13         1       -3.133703e-01
        14         1       -1.543011e+00
        15         1        1.298734e+00
        16         1       -3.198778e-02
        17         1       -1.562749e+00
        18         1       -3.681134e-01
        19         1       -1.292183e+00
        20         1        8.758307e-01
        21         1       -1.137423e-01
        22         1       -5.613838e-01
        23         1       -3.111484e-01
        24         1        3.894180e-01
        25         1        7.205787e-01
        26         1       -3.489799e-01
        27         1       -3.602085e-01
        28         1        1.587530e-01
        29         1       -1.433290e+00
        30         1       -1.136682e+00
        31         1       -6.419787e-01
        32         1        6.482184e-01
        33         1       -1.232501e+00
        34         1        5.342970e-01
        35         1        9.579580e-01
        36         1        1.049210e-01
        37         1       -6.585148e-02
        38         1       -1.170822e+00
        39         1        6.895593e-01
        40         1        2.329316e-01
        41         1        4.422068e-01
        42         1        4.438531e-01
        43         1       -3.562454e-01
        44         1        4.898311e-01
        45         1        2.034982e+00
        46         1       -2.499676e+00
        47         1        5.951723e-01
        48         1        2.231274e+00
        49         1        2.664034e-02
        50         1       -8.390324e-01
        51         1        1.410308e-01
        52         1        1.599143e+00
        53         1        2.723134e-01
        54         1       -4.987283e-01
        55         1       -6.984923e-01
        56         1       -1.016090e+00
        57         1        1.359838e+00
        58         1        1.554494e+00
        59         1       -1.457963e+00
        60         1        1.706331e+00
        61         1       -8.036820e-01
        62         1        1.861292e-01
        63         1        2.088859e+00
        64         1       -6.982981e-01
        65         1        1.349607e+00
        66         1        1.335112e+00
        67         1       -7.133539e-01
        68         1        2.129454e-01
        69         1       -1.954502e+00
        70         1        9.546404e-01
        71         1       -7.519975e-01
        72         1       -1.176199e+00
        73         1       -6.159008e-01
        74         1        2.362433e-01
        75         1       -7.543491e-01
        76         1       -1.185511e+00
        77         1        8.840293e-01
        78         1       -4.193892e-01
        79         1       -8.578464e-01
        80         1        6.539096e-02
        81         1        1.644297e+00
        82         1        1.008971e+00
        83         1        1.161512e+00
        84         1        2.137625e+00
        85         1        1.118317e+00
        86         1       -8.351050e-01
        87         1        1.065189e+00
        88         1        1.696321e+00
        89         1       -4.799963e-01
        90         1        2.120648e+00
        91         1        1.968050e+00
        92         1       -3.590291e-01
        93         1       -1.671917e+00
        94         1        1.896588e-01
        95         1       -1.206982e+00
        96         1       -1.793476e+00
        97         1       -1.716767e-01
        98         1       -8.527706e-01
        99         1       -1.054816e+00
       100         1       -1.073971e+00
         1         2        8.750803e-01
         2         2       -2.803923e-01
         3         2        1.218308e+00
         4         2       -5.905455e-01
         5         2       -6.026357e-02
         6         2       -2.899044e-02
         7         2       -8.004770e-01
         8         2       -8.198950e-01
         9         2       -3.616381e-02
        10         2       -2.129963e+00
        11         2       -8.984036e-01
        12         2        1.211157e+00
        13         2        5.106208e-01
        14         2       -6.758822e-01
        15         2       -6.802593e-01
        16         2       -2.460357e-01
        17         2       -7.237543e-01
        18         2        2.596797e-01
        19         2       -6.616490e-01
        20         2       -3.811730e-01
        21         2       -5.414743e-01
        22         2        1.595863e+00
        23         2        1.256112e+00
        24         2       -5.207414e-01
        25         2       -7.580692e-01
        26         2       -8.349294e-01
        27         2       -2.123592e+00
        28         2       -4.465844e-01
        29         2        1.184719e+00
        30         2        1.674281e-01
        31         2       -2.093846e+00
        32         2        1.168478e+00
        33         2        1.292387e+00
        34         2        1.855860e-01
        35         2        3.531210e-01
        36         2       -7.211994e-01
        37         2        2.944114e-01
        38         2        1.046619e+00
        39         2       -1.152657e+00
        40         2        2.078526e+00
        41         2        8.883589e-01
        42         2        4.730118e-01
        43         2       -2.170493e+00
        44         2       -2.731760e+00
        45         2       -2.516647e-01
        46         2       -4.388946e-01
        47         2        2.578641e-01
        48         2        2.009813e-01
        49         2        1.334431e+00
        50         2       -2.171358e+00
        51         2       -2.162370e+00
        52         2        6.655630e-01
        53         2        2.364358e+00
        54         2        1.123923e+00
        55         2        1.298423e-01
        56         2       -8.849738e-01
        57         2       -1.054439e+00
        58         2        9.596487e-01
        59         2       -1.176966e-01
        60         2       -7.867827e-01
        61         2       -1.847380e+00
        62         2       -2.550410e-01
        63         2        2.180342e+00
        64         2        6.395511e-01
        65         2        1.668447e+00
        66         2        2.932428e-01
        67         2       -2.026858e+00
        68         2       -1.032867e+00
        69         2       -8.947587e-02
        70         2        2.692869e-01
        71         2        7.519524e-03
        72         2        4.948683e-01
        73         2        5.431393e-01
        74         2        1.459468e+00
        75         2       -1.309944e-01
        76         2       -7.442724e-01
        77         2        2.159743e-01
        78         2        1.594097e-01
        79         2       -8.456621e-03
        80         2       -8.608098e-01
        81         2        3.223758e-01
        82         2       -4.603996e-01
        83         2       -2.722207e-01
        84         2       -1.060791e+00
        85         2        2.184392e-01
        86         2       -1.206860e+00
        87         2       -4.344302e-01
        88         2        9.192394e-01
        89         2       -5.014328e-01
        90         2        1.660885e+00
        91         2       -3.179153e-01
        92         2       -4.886732e-01
        93         2        4.485123e-01
        94         2        3.934730e-01
        95         2       -1.802548e-01
        96         2        1.005219e+00
        97         2       -8.675649e-01
        98         2       -5.799238e-01
        99         2        8.898636e-02
       100         2       -8.583768e-01
         1         3       -5.603492e-02
         2         3        4.629573e-01
         3         3        3.291757e-01
         4         3        5.061807e-01
         5         3       -1.441092e+00
         6         3       -1.042321e+00
         7         3       -6.892483e-01
         8         3        3.853068e-02
         9         3       -3.268099e-01
        10         3       -1.824405e-01
        11         3       -3.974977e-01
        12         3       -1.918839e+00
        13         3       -8.989204e-01
        14         3       -8.238600e-01
        15         3       -1.322905e-01
        16         3       -1.167828e-01
        17         3        8.598165e-02
        18         3       -4.578205e-02
        19         3        2.533852e+00
        20         3        1.949923e+00
        21         3        1.763453e+00
        22         3        1.124493e-01
        23         3       -1.377233e+00
        24         3       -3.053659e-01
        25         3        1.479656e+00
        26         3       -6.104515e-01
        27         3        1.377640e-01
        28         3        6.043277e-01
        29         3        5.749980e-01
        30         3        1.782023e+00
        31         3        7.920857e-02
        32         3        5.469149e-01
        33         3        1.166326e+00
        34         3        8.110504e-01
        35         3        3.281597e-01
        36         3        3.760215e-01
        37         3        2.358322e-01
        38         3       -9.841451e-01
        39         3        7.281138e-01
        40         3        2.899722e-03
        41         3        4.517605e-02
        42         3       -1.116307e+00
        43         3        6.469682e-01
        44         3       -1.928840e-01
        45         3        6.699298e-01
        46         3       -8.129307e-01
        47         3       -7.924263e-01
        48         3        4.824298e-02
        49         3        4.762216e-01
        50         3       -1.007008e+00
        51         3       -9.173513e-01
        52         3        2.594345e+00
        53         3        9.993652e-01
        54         3        1.504854e+00
        55         3        4.604124e-01
        56         3       -5.008116e-02
        57         3        2.135947e+00
        58         3        9.202491e-01
        59         3       -9.146954e-01
        60         3       -4.358052e-01
        61         3       -5.733269e-01
        62         3        2.655127e-01
        63         3       -1.539428e+00
        64         3        2.497856e+00
        65         3       -1.306690e+00
        66         3        1.597688e+00
        67         3       -3.689434e-01
        68         3       -1.288494e+00
        69         3        7.788006e-01
        70         3        5.501294e-01
        71         3        7.206544e-01
        72         3        1.692580e-01
        73         3        1.153507e+00
        74         3        9.403166e-02
        75         3        1.019657e-01
        76         3       -6.342091e-01
        77         3        1.207667e+00
        78         3       -5.584097e-01
        79         3        3.096437e+00
        80         3       -1.651241e+00
        81         3        2.611401e-01
        82         3       -1.904224e+00
        83         3       -9.225189e-01
        84         3        1.314678e+00
        85         3       -5.270183e-03
        86         3        1.857152e+00
        87         3       -2.278087e+00
        88         3       -5.292472e-01
        89         3       -6.827652e-01
        90         3        1.152615e-01
        91         3        8.443232e-01
        92         3        2.551569e-01
        93         3        6.296697e-01
        94         3        8.360394e-01
        95         3        7.299676e-01
        96         3       -2.189166e+00
        97         3        5.211703e-01
        98         3        1.912977e+00
        99         3       -3.949418e-01
       100         3        3.090073e-02
         1         4        1.367037e+00
         2         4        3.719646e-01
         3         4       -1.202644e+00
         4         4        4.443222e-01
         5         4       -1.632930e+00
         6         4        4.214475e-01
         7         4        6.590819e-01
         8         4        1.388818e-01
         9         4        1.074688e+00
        10         4        4.880318e-01
        11         4       -2.463375e-02
        12         4       -1.291160e+00
        13         4        5.729539e-01
        14         4       -1.938426e-02
        15         4       -7.438422e-01
        16         4        8.127452e-01
        17         4        3.502916e-01
        18         4        3.490109e-01
        19         4       -6.764084e-01
        20         4       -7.490465e-01
        21         4        1.915941e-02
        22         4       -1.506915e+00
        23         4       -2.175199e-01
        24         4       -1.366885e-01
        25         4       -2.172719e-01
        26         4       -1.113396e+00
        27         4        8.729199e-01
        28         4        1.866924e-01
        29         4       -3.411655e-01
        30         4       -3.930578e-01
        31         4       -1.022636e-02
        32         4       -8.521785e-01
        33         4       -7.868500e-01
        34         4       -5.964332e-01
        35         4        8.198871e-01
        36         4       -1.945017e-01
        37         4        4.395692e-01
        38         4       -2.321278e-01
        39         4        8.249414e-01
        40         4       -5.529659e-01
        41         4        4.037441e-01
        42         4       -2.978259e-01
        43         4       -6.900529e-01
        44         4       -9.557391e-02
        45         4       -6.934329e-01
        46         4       -1.379932e-01
        47         4       -2.196646e-01
        48         4       -1.252311e+00
        49         4       -1.367378e+00
        50         4        3.798640e-01
        51         4       -1.878713e+00
        52         4        5.629454e-01
        53         4       -2.144739e+00
        54         4       -1.310614e-01
        55         4       -8.518993e-01
        56         4       -2.204180e+00
        57         4        4.002680e-01
        58         4       -1.025923e+00
        59         4       -2.038256e+00
        60         4       -9.811546e-01
        61         4       -2.991207e+00
        62         4        7.110699e-01
        63         4        1.345755e+00
        64         4       -8.501107e-01
        65         4        1.377489e+00
        66         4       -2.047107e+00
        67         4       -4.996105e-01
        68         4        7.031217e-01
        69         4        1.159365e-02
        70         4       -1.524105e+00
        71         4       -2.668609e-01
        72         4        2.502915e-01
        73         4       -6.027303e-01
        74         4       -1.603084e+00
        75         4       -6.921852e-01
        76         4        1.975449e+00
        77         4       -2.722266e-02
        78         4       -1.877674e+00
        79         4       -3.457382e-01
        80         4        4.137545e-01
        81         4        3.280635e-01
        82         4        1.833763e-01
        83         4        3.050683e-01
        84         4        6.659452e-02
        85         4       -3.279332e-01
        86         4       -8.739940e-01
        87         4        3.392193e-01
        88         4       -9.593354e-01
        89         4        1.614964e+00
        90         4        6.622997e-01
        91         4       -6.687625e-01
        92         4       -7.543784e-01
        93         4        2.739575e+00
        94         4        1.828875e-01
        95         4       -7.148577e-02
        96         4        2.385637e+00
        97         4        3.167631e-01
        98         4        1.143772e+00
        99         4       -1.150102e-01
       100         4        7.086090e-01
         1         5        4.959525e-01
         2         5        8.311744e-01
         3         5        2.005836e+00
         4         5        3.163693e-01
         5         5       -1.528912e+00
         6         5       -9.050505e-02
         7         5        4.828357e-01
         8         5        2.028146e+00
         9         5        1.326697e+00
        10         5       -7.026310e-02
        11         5       -1.682770e+00
        12         5        1.534475e+00
        13         5       -3.217259e-02
        14         5        3.603877e-01
        15         5        9.889536e-01
        16         5       -3.035272e-01
        17         5        3.709883e-01
        18         5        6.468114e-01
        19         5       -3.009567e-01
        20         5        3.763296e-01
        21         5        1.787783e+00
        22         5       -5.299744e-02
        23         5       -1.105192e+00
        24         5        5.943846e-01
        25         5       -5.609162e-01
        26         5        9.788939e-01
        27         5       -1.534244e+00
        28         5       -2.278464e+00
        29         5       -7.844226e-01
        30         5        6.262744e-01
        31         5        1.108579e+00
        32         5        4.711119e-01
        33         5       -2.285149e+00
        34         5        6.552493e-01
        35         5       -4.380437e-01
        36         5       -1.807349e-02
        37         5       -3.079579e-01
        38         5       -2.024706e-01
        39         5        1.207196e+00
        40         5        2.553204e+00
        41         5        4.673921e-01
        42         5        5.379618e-01
        43         5        8.120222e-02
        44         5       -1.553302e+00
        45         5        8.359622e-01
        46         5       -3.423217e-01
        47         5        8.489024e-01
        48         5       -3.452855e-01
        49         5        1.389065e-01
        50         5        5.052754e-01
        51         5       -2.536886e-02
        52         5        6.996062e-01
        53         5       -3.266106e+00
        54         5       -1.141264e+00
        55         5        5.862992e-01
        56         5        3.747652e-01
        57         5        3.550367e-01
        58         5        2.030129e-01
        59         5        1.368744e+00
        60         5       -3.706672e-01
        61         5        1.727421e+00
        62         5       -1.224312e-01
        63         5        2.594994e-01
        64         5        9.079159e-01
        65         5       -6.727487e-01
        66         5       -7.851726e-01
        67         5       -1.738051e+00
        68         5       -1.633616e-01
        69         5       -1.017166e+00
        70         5        9.375416e-01
        71         5       -7.863776e-01
        72         5        4.300883e-01
        73         5        6.544635e-01
        74         5       -6.996134e-01
        75         5        1.127251e+00
        76         5       -2.019608e-01
        77         5       -7.381010e-01
        78         5        5.414015e-01
        79         5        5.315978e-01
        80         5        1.032259e+00
        81         5        6.159042e-01
        82         5       -3.934880e-01
        83         5       -1.199266e+00
        84         5       -2.294440e+00
        85         5       -9.619249e-01
        86         5       -8.593199e-01
        87         5        2.131146e+00
        88         5        3.842369e-01
        89         5        1.612668e+00
        90         5        4.756512e-01
        91         5       -1.868302e+00
        92         5       -1.108872e+00
        93         5        4.386523e-01
        94         5       -1.256707e-01
        95         5       -2.851103e-01
        96         5        1.837802e-01
        97         5        9.189656e-01
        98         5        1.355534e-01
        99         5        7.374269e-01
       100         5        4.646711e-01
;

param theta:=
    1       -1.585832e-01
    2       -1.978768e+00
    3       -1.027710e+00
    4        6.845518e-01
    5        1.958318e+00
;
param X_true:=
    1        3.334629e-02
    2        1.770653e+00
    3        2.392244e-01
    4        1.977480e+00
    5       -2.472999e+00
    6        1.148159e+00
    7        3.903601e+00
    8        5.769608e+00
    9        3.792614e+00
   10        4.657454e+00
   11       -1.116319e+00
   12        1.648543e+00
   13        3.088217e-01
   14        3.139783e+00
   15        2.709537e+00
   16        5.897310e-01
   17        2.404723e+00
   18        9.263116e-01
   19       -2.348875e+00
   20       -1.472335e+00
   21        2.853373e+00
   22       -4.210837e+00
   23       -3.275799e+00
   24        2.486811e+00
   25       -1.454825e+00
   26        3.540991e+00
   27        1.692730e+00
   28       -4.030827e+00
   29       -4.416503e+00
   30       -1.046283e+00
   31        6.214039e+00
   32       -2.497135e+00
   33       -8.522498e+00
   34       -2.868213e-01
   35       -1.469208e+00
   36        1.015471e+00
   37       -9.085303e-01
   38       -1.553814e+00
   39        4.258665e+00
   40        1.931835e-01
   41       -5.892886e-01
   42        1.000367e+00
   43        3.449975e+00
   44        2.418428e+00
   45        5.631514e-01
   46        1.412740e+00
   47        1.825891e+00
   48       -2.237299e+00
   49       -3.749228e+00
   50        6.788546e+00
   51        3.979698e+00
   52       -2.674516e+00
   53       -1.357074e+01
   54       -6.108822e+00
   55       -2.718258e-03
   56        1.179713e+00
   57        7.637261e-01
   58       -3.371622e+00
   59        2.570458e+00
   60        4.540150e-01
   61        5.738137e+00
   62        5.127877e-01
   63       -1.644779e+00
   64       -2.368609e+00
   65       -2.504008e+00
   66       -5.479580e+00
   67        5.241815e-01
   68        3.499311e+00
   69       -2.196972e+00
   70       -3.867146e-01
   71       -2.431543e+00
   72        1.763559e-01
   73       -1.344115e+00
   74       -5.502239e+00
   75        2.091068e+00
   76        3.296035e+00
   77       -3.375758e+00
   78        9.824712e-02
   79       -2.143883e+00
   80        5.740363e+00
   81        2.095163e-01
   82        1.997341e+00
   83       -7.304088e-01
   84       -4.074265e+00
   85       -2.806617e+00
   86       -1.647662e+00
   87        7.456999e+00
   88       -1.536348e+00
   89        6.144898e+00
   90       -2.557573e+00
   91       -4.795275e+00
   92       -1.968629e+00
   93        1.415064e+00
   94       -1.724307e+00
   95       -9.133138e-01
   96        2.584444e+00
   97        3.297841e+00
   98        3.819245e-01
   99        1.812745e+00
  100        3.335666e+00
;
param X:=
    1       -8.101895e-01
    2       -2.575899e-01
    3       -5.487288e-01
    4        1.142724e+00
    5       -2.472999e+00
    6       -4.717989e-01
    7        7.095378e-01
    8        3.009072e-02
    9        3.792614e+00
   10        9.505290e-01
   11        1.576612e+00
   12        1.648543e+00
   13        3.088217e-01
   14        5.050483e-01
   15       -4.376924e-02
   16        2.555491e-01
   17        4.914418e-01
   18        4.683317e-01
   19       -5.767063e-01
   20       -1.472335e+00
   21        6.105931e-01
   22        6.596670e-01
   23       -8.019265e-01
   24       -9.449638e-01
   25       -1.333046e-01
   26        8.037604e-01
   27       -2.444450e-01
   28        6.041712e-01
   29        3.497767e-01
   30       -4.495510e-01
   31       -3.255703e-02
   32       -1.340305e-01
   33       -4.577737e-01
   34       -6.700220e-01
   35       -1.344114e+00
   36       -1.260335e-01
   37        1.742339e+00
   38        7.231609e-03
   39        6.745894e-01
   40       -1.464752e+00
   41        1.097255e+00
   42       -4.839085e-02
   43        7.258277e-01
   44       -1.109543e+00
   45        1.974381e+00
   46        2.132603e-01
   47        1.825891e+00
   48        1.725245e+00
   49        1.430751e+00
   50        3.088254e-01
   51        6.379837e-01
   52        3.167267e-01
   53        8.425325e-02
   54        3.139960e-01
   55        6.372377e-01
   56       -2.602700e-02
   57        2.243891e+00
   58        1.815304e+00
   59        2.718317e+00
   60        1.559064e+00
   61        6.614695e-01
   62       -9.250109e-01
   63        2.062236e+00
   64       -9.189138e-01
   65       -1.558359e+00
   66       -2.223141e+00
   67       -1.733385e+00
   68       -1.502564e-01
   69       -5.628199e-01
   70       -3.285123e-01
   71        2.669226e-01
   72        1.763559e-01
   73       -1.344115e+00
   74        1.342795e+00
   75        1.822221e+00
   76       -3.785537e-01
   77       -1.417345e+00
   78        5.267193e-01
   79       -6.439651e-01
   80       -2.110123e-01
   81        3.851321e-01
   82       -9.414234e-01
   83       -7.304088e-01
   84       -2.162462e-01
   85        1.455459e+00
   86        1.090482e+00
   87        7.806783e-01
   88       -2.994638e-01
   89        6.318092e-01
   90        3.636712e-01
   91       -2.308492e-01
   92       -4.995139e-01
   93        1.415064e+00
   94        2.845680e-01
   95       -1.858659e+00
   96        1.988439e+00
   97       -1.841470e+00
   98        1.447373e+00
   99       -3.460411e-01
  100        2.617844e-01
;
param outliervec:=
    1    1
    2    1
    3    1
    4    1
    5    0
    6    1
    7    1
    8    1
    9    0
   10    1
   11    1
   12    0
   13    0
   14    1
   15    1
   16    1
   17    1
   18    1
   19    1
   20    0
   21    1
   22    1
   23    1
   24    1
   25    1
   26    1
   27    1
   28    1
   29    1
   30    1
   31    1
   32    1
   33    1
   34    1
   35    1
   36    1
   37    1
   38    1
   39    1
   40    1
   41    1
   42    1
   43    1
   44    1
   45    1
   46    1
   47    0
   48    1
   49    1
   50    1
   51    1
   52    1
   53    1
   54    1
   55    1
   56    1
   57    1
   58    1
   59    1
   60    1
   61    1
   62    1
   63    1
   64    1
   65    1
   66    1
   67    1
   68    1
   69    1
   70    1
   71    1
   72    0
   73    0
   74    1
   75    1
   76    1
   77    1
   78    1
   79    1
   80    1
   81    1
   82    1
   83    0
   84    1
   85    1
   86    1
   87    1
   88    1
   89    1
   90    1
   91    1
   92    1
   93    0
   94    1
   95    1
   96    1
   97    1
   98    1
   99    1
  100    1
;